102
NEVPT2 coordinates rotated into the susceptibility (chi) frame. This file was generated with SimpNMR v1.0.8 at 18:07:04 28-11-2025.
Ni          0.0001060       3.3400690      -0.0000000
N           2.2564052       2.7792254      -0.0000000
N           0.0001189       3.7483560       2.0519090
N          -2.2562288       2.7793686       0.0000000
N           0.0001691       5.3302390      -0.0000000
C           3.6194148      -0.7322148      -0.0000000
C          -1.1586420       0.6921568       0.0000000
N           0.0000441       1.3900340      -0.0000000
C           2.3821112       1.4236874      -0.0000000
C           0.0001895       5.9724330       1.1739600
C          -4.7709542       1.5376554       0.0000000
H          -5.7573993       1.0928867       0.0000000
C           3.6194612       0.7319852      -0.0000000
N           0.0001189       3.7483560      -2.0519090
C          -2.3820208       1.4238386       0.0000000
C           0.0001608       5.0679290       2.3494830
C           0.0002337       7.3654380       1.2091250
H           0.0002508       7.9032530       2.1461330
C           0.0001895       5.9724330      -1.1739600
C           0.0001749       5.5119270       3.6676590
H           0.0002084       6.5687220       3.8939460
C           0.0001451       4.5725990       4.6944190
H           0.0001554       4.8975960       5.7269010
C           0.0000904       2.8502430       3.0377850
H           0.0000574       1.8098190       2.7373090
C           4.7710518       1.5373526      -0.0000000
H           5.7574687       1.0925213      -0.0000000
C           0.0002556       8.0557920      -0.0000000
H           0.0002900       9.1380590      -0.0000000
C           0.0001021       3.2188940       4.3784460
H           0.0000780       2.4593770       5.1482980
C           1.1586860       0.6920832      -0.0000000
C           3.3692091       3.5008031      -0.0000000
H           3.2503453       4.5781699      -0.0000000
C           0.0002337       7.3654380      -1.2091250
H           0.0002508       7.9032530      -2.1461330
C          -3.3689869       3.5010169       0.0000000
H          -3.2500547       4.5783761       0.0000000
C           0.0001608       5.0679290      -2.3494830
C           4.6448925       2.9163986      -0.0000000
H           5.5209567       3.5506088      -0.0000000
C          -4.6447075       2.9166934       0.0000000
H          -5.5207313       3.5509592       0.0000000
C           0.0001749       5.5119270      -3.6676590
H           0.0002084       6.5687220      -3.8939460
C           0.0000904       2.8502430      -3.0377850
H           0.0000574       1.8098190      -2.7373090
C           0.0001021       3.2188940      -4.3784460
H           0.0000780       2.4593770      -5.1482980
C           0.0001451       4.5725990      -4.6944190
H           0.0001554       4.8975960      -5.7269010
N          -2.2564052      -2.7792254       0.0000000
N           2.2562288      -2.7793686      -0.0000000
C          -3.6194148       0.7322148       0.0000000
C           1.1586420      -0.6921568      -0.0000000
N          -0.0000441      -1.3900340       0.0000000
C          -2.3821112      -1.4236874       0.0000000
C           4.7709542      -1.5376554      -0.0000000
H           5.7573993      -1.0928867      -0.0000000
C          -3.6194612      -0.7319852       0.0000000
C           2.3820208      -1.4238386      -0.0000000
C          -4.7710518      -1.5373526       0.0000000
H          -5.7574687      -1.0925213       0.0000000
C          -1.1586860      -0.6920832       0.0000000
C          -3.3692091      -3.5008031       0.0000000
H          -3.2503453      -4.5781699       0.0000000
C           3.3689869      -3.5010169      -0.0000000
H           3.2500547      -4.5783761      -0.0000000
C          -4.6448925      -2.9163986       0.0000000
H          -5.5209567      -3.5506088       0.0000000
C           4.6447075      -2.9166934      -0.0000000
H           5.5207313      -3.5509592      -0.0000000
Ni         -0.0001060      -3.3400690       0.0000000
N          -0.0001189      -3.7483560       2.0519090
N          -0.0001691      -5.3302390       0.0000000
C          -0.0001895      -5.9724330       1.1739600
N          -0.0001189      -3.7483560      -2.0519090
C          -0.0001608      -5.0679290       2.3494830
C          -0.0002337      -7.3654380       1.2091250
H          -0.0002508      -7.9032530       2.1461330
C          -0.0001895      -5.9724330      -1.1739600
C          -0.0001749      -5.5119270       3.6676590
H          -0.0002084      -6.5687220       3.8939460
C          -0.0001451      -4.5725990       4.6944190
H          -0.0001554      -4.8975960       5.7269010
C          -0.0000904      -2.8502430       3.0377850
H          -0.0000574      -1.8098190       2.7373090
C          -0.0002556      -8.0557920       0.0000000
H          -0.0002900      -9.1380590       0.0000000
C          -0.0001021      -3.2188940       4.3784460
H          -0.0000780      -2.4593770       5.1482980
C          -0.0002337      -7.3654380      -1.2091250
H          -0.0002508      -7.9032530      -2.1461330
C          -0.0001608      -5.0679290      -2.3494830
C          -0.0001749      -5.5119270      -3.6676590
H          -0.0002084      -6.5687220      -3.8939460
C          -0.0000904      -2.8502430      -3.0377850
H          -0.0000574      -1.8098190      -2.7373090
C          -0.0001021      -3.2188940      -4.3784460
H          -0.0000780      -2.4593770      -5.1482980
C          -0.0001451      -4.5725990      -4.6944190
H          -0.0001554      -4.8975960      -5.7269010