84
NEVPT2 coordinates rotated into the susceptibility (chi) frame. This file was generated with SimpNMR v1.0.8 at 18:07:21 28-11-2025.
Fe          0.0000000      -0.0000000       0.6486500
Cl         -1.8157458       0.1318417      -0.8931030
N           0.1242827       1.5019904       2.0283660
C           0.2410655       2.8378577       1.5347280
C          -0.9240194       3.5925543       1.2569460
C           1.5185837       3.3845718       1.2716160
C          -2.2967239       3.0217730       1.5167700
H          -3.0770329       3.7698435       1.3127860
H          -2.4149089       2.6855136       2.5596460
H          -2.4874841       2.1442147       0.8782440
C           0.4693109       5.4500594       0.4618270
C           1.6045512       4.6793536       0.7390490
H           2.5964805       5.0985580       0.5421860
C           0.5865838       6.8595274      -0.0689380
H           1.5738907       7.0425623      -0.5199920
H           0.4526790       7.6034717       0.7363660
H          -0.1803422       7.0727400      -0.8309250
C          -0.7843798       4.8817895       0.7261170
H          -1.6892722       5.4623419       0.5188070
C           2.7732875       2.5929080       1.5485210
H           3.6700537       3.1971775       1.3466110
H           2.8188187       1.6904326       0.9181670
H           2.8251180       2.2510852       2.5950550
C           0.1049531       1.2768409       3.3432290
C           0.0000000      -0.0000000       3.9382060
H           0.0000000      -0.0000000       5.0274120
C           0.2005653       2.4541607       4.2969770
H           1.1315005       3.0186429       4.1329870
H           0.1701344       2.1251512       5.3434010
H          -0.6234719       3.1644961       4.1276670
O          -0.1158383      -1.6592173      -3.4204240
C           0.4613673      -3.9316089      -3.2718380
H           0.4190199      -4.0966383      -2.1833060
H           1.0683198      -4.7330715      -3.7190690
C          -1.3549754      -2.3950467      -3.5453450
H          -1.9644975      -1.9337400      -4.3392650
H          -1.8987328      -2.3051050      -2.5918760
C           1.0125246      -2.5419151      -3.5712630
H           1.7952221      -2.2084127      -2.8750140
H           1.3954610      -2.4705606      -4.6068500
C          -0.9535492      -3.8402294      -3.8604570
H          -0.9281274      -4.0087241      -4.9498660
H          -1.6526904      -4.5680797      -3.4234160
Li         -0.0000000       0.0000000      -2.4354520
N          -0.1242827      -1.5019904       2.0283660
C          -0.2410655      -2.8378577       1.5347280
C           0.9240194      -3.5925543       1.2569460
C          -1.5185837      -3.3845718       1.2716160
C           2.2967239      -3.0217730       1.5167700
H           3.0770329      -3.7698435       1.3127860
H           2.4149089      -2.6855136       2.5596460
H           2.4874841      -2.1442147       0.8782440
C          -0.4693109      -5.4500594       0.4618270
C          -1.6045512      -4.6793536       0.7390490
H          -2.5964805      -5.0985580       0.5421860
C          -0.5865838      -6.8595274      -0.0689380
H          -1.5738907      -7.0425623      -0.5199920
H          -0.4526790      -7.6034717       0.7363660
H           0.1803422      -7.0727400      -0.8309250
C           0.7843798      -4.8817895       0.7261170
H           1.6892722      -5.4623419       0.5188070
C          -2.7732875      -2.5929080       1.5485210
H          -3.6700537      -3.1971775       1.3466110
H          -2.8188187      -1.6904326       0.9181670
H          -2.8251180      -2.2510852       2.5950550
C          -0.1049531      -1.2768409       3.3432290
C          -0.2005653      -2.4541607       4.2969770
H          -1.1315005      -3.0186429       4.1329870
H          -0.1701344      -2.1251512       5.3434010
H           0.6234719      -3.1644961       4.1276670
Cl          1.8157458      -0.1318417      -0.8931030
O           0.1158383       1.6592173      -3.4204240
C          -0.4613673       3.9316089      -3.2718380
H          -0.4190199       4.0966383      -2.1833060
H          -1.0683198       4.7330715      -3.7190690
C           1.3549754       2.3950467      -3.5453450
H           1.9644975       1.9337400      -4.3392650
H           1.8987328       2.3051050      -2.5918760
C          -1.0125246       2.5419151      -3.5712630
H          -1.7952221       2.2084127      -2.8750140
H          -1.3954610       2.4705606      -4.6068500
C           0.9535492       3.8402294      -3.8604570
H           0.9281274       4.0087241      -4.9498660
H           1.6526904       4.5680797      -3.4234160